19 29 28 59 35 18 97 5 70 74 16 37 66 38 78 30 65 48 49 8 50 0 24 6 57 44 64 52 62 2 69 23 85 81 34 54 93 43 10 20 25 89 71 22 14 42 9 1 61 17 53 36 63 55 11 73 88 90 31 75 72 4 46 96 76 51 21 47 13 3 80 68 79 32 12 27 92 40 99 60 26 94 41 95 86 91 56 82 83 7 67 45 15 84 58 98 39 77 87 33 

